c FILE: i080-103

c SOURCE: From steinlib

c DESCRIPTION: Steinlib instance with 80 nodes and 120 edges.

p edge 80 120
e 1 12
e 1 29
e 1 34
e 1 40
e 1 70
e 1 73
e 2 55
e 2 74
e 2 77
e 3 20
e 3 23
e 3 32
e 3 53
e 3 75
e 3 78
e 4 25
e 4 42
e 4 64
e 5 27
e 5 75
e 6 28
e 6 75
e 7 13
e 7 14
e 7 15
e 8 44
e 9 40
e 10 22
e 11 29
e 11 41
e 11 55
e 11 78
e 12 27
e 12 40
e 13 21
e 13 29
e 13 50
e 13 59
e 14 18
e 14 66
e 15 20
e 15 23
e 15 52
e 15 73
e 16 66
e 17 46
e 17 47
e 18 32
e 18 45
e 19 37
e 19 43
e 19 54
e 19 65
e 20 24
e 20 25
e 20 35
e 20 73
e 20 76
e 20 80
e 22 26
e 22 31
e 22 54
e 22 73
e 23 38
e 23 61
e 23 71
e 24 42
e 24 66
e 25 51
e 26 29
e 26 38
e 26 67
e 26 68
e 27 29
e 27 33
e 27 71
e 28 47
e 28 63
e 29 39
e 30 50
e 30 57
e 31 63
e 31 76
e 32 42
e 32 80
e 34 37
e 34 78
e 36 48
e 36 70
e 37 46
e 37 47
e 37 63
e 38 64
e 38 65
e 38 74
e 40 44
e 40 58
e 40 72
e 43 80
e 48 55
e 48 62
e 48 72
e 49 51
e 49 57
e 52 67
e 53 57
e 54 60
e 55 62
e 55 79
e 56 69
e 56 73
e 57 60
e 57 72
e 58 72
e 59 72
e 60 69
e 62 65
e 62 67
e 66 77
e 66 79
